1 -1 -2 0
1 -1 3 0
1 1 -4 0
1 -1 5 0
1 -1 6 0
1 -1 -7 0
1 2 8 0
1 -2 3 0
1 -2 -4 0
1 -2 1 0
1 -2 -7 0
1 9 -10 0
1 9 -11 0
1 -9 3 0
1 -9 -4 0
1 9 12 0
1 -9 13 0
1 -9 -5 0
1 9 7 0
1 -14 11 0
1 14 15 0
1 -14 -3 0
1 14 4 0
1 -14 -12 0
1 14 -9 0
1 -14 5 0
1 14 7 0
1 4 16 0
1 -4 -17 0
1 -4 -18 0
1 -4 14 0
1 -4 2 0
1 4 -19 0
1 4 20 0
1 4 21 0
1 4 22 0
1 -7 -16 0
1 -7 -17 0
1 7 -14 0
1 7 -2 0
1 -7 -20 0
1 -7 -22 0
1 7 9 0
1 3 -23 0
1 3 -24 0
1 3 25 0
1 -3 -20 0
1 3 26 0
1 -3 27 0
1 -3 9 0
1 3 1 0
1 -5 -16 0
1 5 -24 0
1 5 -14 0
1 -5 -2 0
1 -5 -3 0
1 5 20 0
1 -5 -26 0
1 -5 9 0
1 -5 1 0
1 5 -28 0
1 22 -10 0
1 -22 -11 0
1 -22 -12 0
1 -22 29 0
1 22 27 0
1 -18 10 0
1 18 -24 0
1 -18 4 0
1 18 -12 0
1 18 29 0
1 -18 22 0
1 18 -7 0
1 21 -10 0
1 21 11 0
1 -21 17 0
1 21 -30 0
1 -21 4 0
1 21 12 0
1 -21 29 0
1 21 26 0
1 -21 31 0
1 -21 7 0
1 17 -10 0
1 -17 11 0
1 -17 -32 0
1 17 -23 0
1 17 -30 0
1 -17 -4 0
1 -17 -12 0
1 17 -21 0
1 -17 -33 0
1 17 31 0
1 17 7 0
1 -29 -34 0
1 29 11 0
1 29 -18 0
1 29 14 0
1 29 -35 0
1 -29 -36 0
1 29 37 0
1 29 38 0
1 29 21 0
1 29 22 0
1 29 9 0
1 -29 39 0
1 11 -34 0
1 -11 40 0
1 11 -41 0
1 -11 17 0
1 11 18 0
1 11 14 0
1 -11 -35 0
1 11 36 0
1 -11 37 0
1 -11 -29 0
1 -11 -21 0
1 -11 22 0
1 11 -9 0
1 11 -39 0
1 -12 10 0
1 -12 42 0
1 -12 -16 0
1 12 18 0
1 12 -14 0
1 -12 -43 0
1 -12 -44 0
1 -12 20 0
1 12 -22 0
1 -12 39 0
1 -10 -45 0
1 10 16 0
1 -10 -17 0
1 -10 18 0
1 10 -14 0
1 -10 35 0
1 -10 43 0
1 10 -20 0
1 10 -21 0
1 -10 22 0
1 10 39 0
1 -37 -40 0
1 -37 -11 0
1 -37 -32 0
1 -37 -30 0
1 -37 29 0
1 37 20 0
1 37 33 0
1 37 -31 0
1 -40 11 0
1 -40 16 0
1 -40 -30 0
1 40 -37 0
1 -40 -33 0
1 -40 31 0
1 -36 11 0
1 36 32 0
1 -36 -30 0
1 36 -43 0
1 -36 29 0
1 36 -31 0
1 34 -42 0
1 34 -11 0
1 34 -32 0
1 34 -30 0
1 34 36 0
1 34 29 0
1 -34 33 0
1 -34 -31 0
1 -31 34 0
1 -31 40 0
1 31 30 0
1 -31 -46 0
1 31 36 0
1 -31 -37 0
1 -31 21 0
1 -31 47 0
1 31 -48 0
1 30 -17 0
1 -30 49 0
1 30 37 0
1 -30 21 0
1 30 -31 0
1 30 -48 0
1 33 -34 0
1 -33 -40 0
1 33 17 0
1 33 32 0
1 -33 46 0
1 -33 50 0
1 -33 36 0
1 -33 37 0
1 33 21 0
1 -33 48 0
1 -33 -51 0
1 -33 -39 0
1 32 -34 0
1 -32 -40 0
1 -32 -52 0
1 -32 46 0
1 32 50 0
1 -32 35 0
1 32 36 0
1 -32 37 0
1 -32 -21 0
1 32 -33 0
1 32 -48 0
1 -32 51 0
1 32 -39 0
1 6 53 0
1 6 8 0
1 -6 -54 0
1 6 55 0
1 -6 -1 0
1 6 -56 0
1 -8 -53 0
1 -8 57 0
1 -8 2 0
1 8 58 0
1 8 -6 0
1 -13 -53 0
1 13 -57 0
1 -13 -59 0
1 -13 -60 0
1 13 15 0
1 -13 54 0
1 -13 -55 0
1 -13 9 0
1 -13 61 0
1 15 -53 0
1 -15 -57 0
1 15 -59 0
1 -15 -60 0
1 -15 -14 0
1 15 -62 0
1 15 55 0
1 15 -63 0
1 -15 64 0
1 15 13 0
1 57 -65 0
1 -57 23 0
1 57 -66 0
1 -57 24 0
1 57 8 0
1 57 67 0
1 -57 -26 0
1 -57 27 0
1 57 13 0
1 57 6 0
1 -55 57 0
1 55 24 0
1 -55 8 0
1 55 -68 0
1 -55 -67 0
1 -55 26 0
1 53 69 0
1 53 -70 0
1 53 71 0
1 53 -15 0
1 53 8 0
1 53 54 0
1 -53 -67 0
1 -53 -72 0
1 -53 13 0
1 53 -6 0
1 54 70 0
1 54 15 0
1 54 -8 0
1 54 -73 0
1 -54 -67 0
1 -54 72 0
1 -54 -74 0
1 -54 13 0
1 -54 -6 0
1 27 57 0
1 -27 59 0
1 27 -24 0
1 27 60 0
1 27 3 0
1 27 -55 0
1 27 63 0
1 -27 -64 0
1 -27 22 0
1 27 -74 0
1 -27 -5 0
1 -24 57 0
1 -24 -18 0
1 -24 60 0
1 24 3 0
1 24 -55 0
1 24 -63 0
1 -24 64 0
1 -24 -27 0
1 24 -5 0
1 -26 -57 0
1 -26 -23 0
1 -26 59 0
1 -26 60 0
1 -26 -75 0
1 -26 -76 0
1 26 3 0
1 -26 -55 0
1 26 -63 0
1 -26 -64 0
1 26 -72 0
1 26 -77 0
1 -26 5 0
1 23 64 0
1 23 59 0
1 -23 76 0
1 23 3 0
1 -23 55 0
1 23 63 0
1 -23 -78 0
1 23 77 0
1 -60 -79 0
1 -60 64 0
1 -60 -42 0
1 -60 -23 0
1 -60 80 0
1 -60 15 0
1 60 43 0
1 -60 20 0
1 -64 -79 0
1 64 42 0
1 -64 -16 0
1 64 -23 0
1 -64 24 0
1 64 15 0
1 -64 43 0
1 64 -26 0
1 64 -27 0
1 -64 13 0
1 -59 79 0
1 -59 81 0
1 59 -65 0
1 59 -23 0
1 59 -82 0
1 59 15 0
1 -59 83 0
1 -59 63 0
1 -59 -67 0
1 -59 26 0
1 59 -13 0
1 -63 65 0
1 63 23 0
1 63 -59 0
1 -63 -24 0
1 -63 -15 0
1 63 84 0
1 -63 83 0
1 63 -67 0
1 -63 26 0
1 -63 85 0
1 63 -27 0
1 63 -13 0
1 -20 -10 0
1 -20 16 0
1 20 76 0
1 -20 3 0
1 20 4 0
1 -20 12 0
1 -20 -37 0
1 -20 -67 0
1 20 -64 0
1 20 -78 0
1 20 -5 0
1 20 7 0
1 16 -10 0
1 16 65 0
1 -16 -76 0
1 16 -3 0
1 16 -4 0
1 -16 -12 0
1 16 78 0
1 16 -77 0
1 16 -5 0
1 -16 7 0
1 43 -10 0
1 -43 60 0
1 -43 76 0
1 -43 -25 0
1 43 -19 0
1 43 -12 0
1 -43 36 0
1 -43 83 0
1 -43 -64 0
1 -43 -78 0
1 -43 77 0
1 -43 28 0
1 -42 -86 0
1 -42 81 0
1 -42 76 0
1 42 -43 0
1 -42 64 0
1 42 78 0
1 -42 -77 0
1 -42 28 0
1 76 -42 0
1 76 -23 0
1 -76 -87 0
1 -76 -50 0
1 76 88 0
1 76 35 0
1 -76 -43 0
1 76 -20 0
1 -76 -89 0
1 76 -51 0
1 76 -39 0
1 77 42 0
1 -77 16 0
1 77 -23 0
1 -77 -76 0
1 -77 -87 0
1 -77 -50 0
1 -77 -35 0
1 77 -20 0
1 77 -26 0
1 77 -51 0
1 -75 42 0
1 -75 -16 0
1 75 -23 0
1 -75 90 0
1 75 -91 0
1 75 43 0
1 75 20 0
1 -75 -26 0
1 75 -78 0
1 -75 -89 0
1 75 92 0
1 -78 79 0
1 78 -42 0
1 -78 16 0
1 -78 87 0
1 -78 -91 0
1 -78 -84 0
1 -78 20 0
1 78 26 0
1 78 93 0
1 78 -89 0
1 -78 92 0
1 -35 -86 0
1 35 -11 0
1 35 -32 0
1 -35 76 0
1 -35 84 0
1 -35 -12 0
1 -35 -19 0
1 -35 29 0
1 35 -33 0
1 35 77 0
1 35 39 0
1 39 79 0
1 39 10 0
1 39 -32 0
1 -39 76 0
1 39 25 0
1 -39 19 0
1 -39 12 0
1 39 29 0
1 -39 -33 0
1 39 -77 0
1 -50 -86 0
1 -50 45 0
1 50 -41 0
1 50 -32 0
1 -50 76 0
1 -50 91 0
1 50 -25 0
1 -50 44 0
1 50 38 0
1 -50 -33 0
1 50 -77 0
1 -50 28 0
1 51 86 0
1 51 45 0
1 -51 76 0
1 -51 50 0
1 -51 -25 0
1 51 19 0
1 51 -44 0
1 -51 38 0
1 -51 -33 0
1 -51 -77 0
1 51 92 0
1 -19 86 0
1 -19 -42 0
1 19 -94 0
1 19 -95 0
1 -19 46 0
1 -19 50 0
1 -19 -35 0
1 -19 4 0
1 19 96 0
1 19 -43 0
1 -19 97 0
1 -19 -51 0
1 -19 39 0
1 -86 98 0
1 86 -94 0
1 86 -95 0
1 -86 50 0
1 -86 35 0
1 -86 43 0
1 86 7 0
1 -86 -97 0
1 86 99 0
1 86 48 0
1 -86 -51 0
1 25 42 0
1 -25 94 0
1 -25 -100 0
1 25 -50 0
1 -25 3 0
1 -25 -35 0
1 -25 -101 0
1 -25 43 0
1 25 -97 0
1 -25 89 0
1 -25 -51 0
1 -25 -28 0
1 25 39 0
1 28 42 0
1 -28 -94 0
1 -28 -100 0
1 28 50 0
1 28 25 0
1 28 35 0
1 -28 -43 0
1 -28 -102 0
1 28 89 0
1 28 103 0
1 46 86 0
1 46 -45 0
1 -46 -32 0
1 46 30 0
1 -46 -87 0
1 -46 44 0
1 46 38 0
1 46 33 0
1 46 -31 0
1 -46 48 0
1 48 86 0
1 48 45 0
1 -48 -41 0
1 48 32 0
1 48 19 0
1 48 -44 0
1 48 33 0
1 -48 -31 0
1 48 -89 0
1 95 -86 0
1 95 45 0
1 -95 41 0
1 -95 -52 0
1 -95 49 0
1 95 -100 0
1 95 -44 0
1 -95 38 0
1 95 104 0
1 -95 -47 0
1 -99 86 0
1 99 -45 0
1 99 41 0
1 99 52 0
1 -99 -49 0
1 99 95 0
1 99 19 0
1 -99 38 0
1 -99 104 0
1 -99 102 0
1 38 105 0
1 -38 41 0
1 -38 95 0
1 -38 50 0
1 38 -106 0
1 38 -29 0
1 -38 107 0
1 -38 99 0
1 -38 -48 0
1 -38 51 0
1 -41 105 0
1 41 -108 0
1 -41 109 0
1 41 95 0
1 41 46 0
1 -41 50 0
1 41 -106 0
1 41 107 0
1 -41 110 0
1 41 -48 0
1 -41 51 0
1 44 -105 0
1 -44 111 0
1 44 -94 0
1 44 -95 0
1 44 -50 0
1 -44 -12 0
1 -44 106 0
1 -44 112 0
1 44 113 0
1 44 97 0
1 44 99 0
1 44 48 0
1 -45 10 0
1 -45 114 0
1 -45 105 0
1 45 111 0
1 45 94 0
1 45 46 0
1 45 50 0
1 45 106 0
1 -45 44 0
1 45 -97 0
1 45 -99 0
1 -45 51 0
1 -115 -41 0
1 -115 52 0
1 -115 49 0
1 115 -104 0
1 -115 38 0
1 115 -110 0
1 -115 47 0
1 -110 41 0
1 110 -52 0
1 -110 115 0
1 -110 49 0
1 -110 38 0
1 110 -104 0
1 109 -41 0
1 109 -52 0
1 -109 -111 0
1 -109 -104 0
1 107 -41 0
1 107 109 0
1 -107 -38 0
1 -107 113 0
1 107 -104 0
1 -107 -47 0
1 -47 -116 0
1 47 115 0
1 -47 -49 0
1 -47 -95 0
1 -47 -107 0
1 -47 -110 0
1 47 31 0
1 47 -99 0
1 -49 -116 0
1 49 -109 0
1 -49 115 0
1 49 -117 0
1 49 -95 0
1 49 -118 0
1 -49 107 0
1 49 110 0
1 49 -99 0
1 -104 116 0
1 104 -119 0
1 104 105 0
1 -104 52 0
1 -104 -115 0
1 104 -95 0
1 104 120 0
1 104 106 0
1 -104 -107 0
1 -104 33 0
1 104 110 0
1 -104 121 0
1 -104 -99 0
1 -52 -116 0
1 -52 119 0
1 -52 -105 0
1 -52 -109 0
1 -52 -122 0
1 52 95 0
1 52 -118 0
1 -52 -120 0
1 52 106 0
1 52 107 0
1 52 -110 0
1 -52 -99 0
1 56 123 0
1 -56 124 0
1 56 6 0
1 -58 125 0
1 58 -123 0
1 58 -8 0
1 58 -126 0
1 -58 56 0
1 -61 -125 0
1 -61 -123 0
1 61 -127 0
1 -61 -62 0
1 61 124 0
1 -61 126 0
1 61 128 0
1 61 129 0
1 62 -125 0
1 -62 -123 0
1 62 -127 0
1 62 -130 0
1 -62 -124 0
1 62 129 0
1 -126 -70 0
1 126 123 0
1 126 71 0
1 126 62 0
1 -126 -58 0
1 126 72 0
1 126 131 0
1 126 -74 0
1 -126 -61 0
1 -126 56 0
1 -123 126 0
1 -123 -70 0
1 123 -132 0
1 -123 -62 0
1 123 72 0
1 123 -61 0
1 123 -56 0
1 124 133 0
1 124 125 0
1 -124 62 0
1 124 -58 0
1 124 61 0
1 -124 -56 0
1 125 -134 0
1 125 62 0
1 -125 -58 0
1 125 -124 0
1 -125 61 0
1 74 -53 0
1 74 -123 0
1 -74 -71 0
1 -74 -130 0
1 -74 126 0
1 -74 27 0
1 74 128 0
1 -71 -53 0
1 71 -24 0
1 71 127 0
1 -71 -128 0
1 71 -54 0
1 -71 -126 0
1 -71 -74 0
1 71 129 0
1 72 135 0
1 72 53 0
1 72 -70 0
1 72 -123 0
1 72 127 0
1 72 130 0
1 72 -136 0
1 -72 -137 0
1 -72 54 0
1 72 26 0
1 72 126 0
1 72 128 0
1 72 129 0
1 72 -138 0
1 70 135 0
1 70 -53 0
1 -70 -126 0
1 70 -23 0
1 70 -123 0
1 -70 -127 0
1 70 -130 0
1 -70 -136 0
1 70 137 0
1 70 54 0
1 -70 -72 0
1 70 -128 0
1 -70 129 0
1 -70 -138 0
1 129 -139 0
1 -129 -81 0
1 -129 70 0
1 129 71 0
1 129 62 0
1 129 -130 0
1 -129 67 0
1 129 -74 0
1 -129 61 0
1 129 140 0
1 130 139 0
1 -130 81 0
1 -130 65 0
1 -130 -70 0
1 -130 71 0
1 -130 62 0
1 -130 -141 0
1 130 -142 0
1 130 -83 0
1 130 67 0
1 130 129 0
1 130 -72 0
1 130 -74 0
1 130 -61 0
1 128 -139 0
1 -128 -70 0
1 128 -71 0
1 128 -127 0
1 -128 62 0
1 -128 142 0
1 -128 -143 0
1 128 61 0
1 -127 -139 0
1 127 70 0
1 127 71 0
1 127 -144 0
1 -127 -62 0
1 127 -128 0
1 127 -142 0
1 -127 72 0
1 127 -61 0
1 -67 -135 0
1 -67 53 0
1 -67 57 0
1 -67 -65 0
1 67 59 0
1 -67 130 0
1 -67 -136 0
1 67 137 0
1 67 -63 0
1 67 20 0
1 -67 -138 0
1 -65 135 0
1 65 -16 0
1 65 57 0
1 65 59 0
1 65 130 0
1 65 137 0
1 65 54 0
1 65 55 0
1 65 -67 0
1 -65 129 0
1 -83 -135 0
1 83 81 0
1 -83 130 0
1 -83 -137 0
1 -83 -73 0
1 -83 -43 0
1 83 -68 0
1 -83 63 0
1 83 -129 0
1 -83 138 0
1 -81 -42 0
1 -81 -69 0
1 -81 66 0
1 -81 59 0
1 -81 136 0
1 81 137 0
1 -81 83 0
1 -81 -63 0
1 -81 68 0
1 -81 129 0
1 81 -138 0
1 135 -79 0
1 -135 81 0
1 135 70 0
1 135 145 0
1 135 91 0
1 -135 137 0
1 -135 84 0
1 -135 -83 0
1 135 -72 0
1 -135 -146 0
1 -135 -92 0
1 -137 -79 0
1 -137 135 0
1 -137 -81 0
1 -137 65 0
1 -137 70 0
1 137 91 0
1 137 84 0
1 -137 -83 0
1 137 -72 0
1 137 -146 0
1 137 -92 0
1 -138 139 0
1 -138 -65 0
1 138 147 0
1 -138 70 0
1 138 136 0
1 138 -145 0
1 -138 142 0
1 138 -83 0
1 -138 -67 0
1 -138 -72 0
1 136 -139 0
1 136 -81 0
1 -136 65 0
1 136 70 0
1 136 145 0
1 136 -148 0
1 -136 149 0
1 -136 83 0
1 -136 -67 0
1 -136 72 0
1 136 146 0
1 136 138 0
1 136 150 0
1 -84 -79 0
1 84 -135 0
1 -84 69 0
1 84 -66 0
1 -84 59 0
1 84 -60 0
1 84 -75 0
1 -84 137 0
1 84 73 0
1 84 68 0
1 -84 -63 0
1 84 -64 0
1 84 -78 0
1 79 135 0
1 79 139 0
1 79 -66 0
1 79 59 0
1 -79 -75 0
1 79 84 0
1 -79 73 0
1 -79 -63 0
1 -79 -64 0
1 -79 39 0
1 -91 135 0
1 -91 69 0
1 91 -66 0
1 91 -82 0
1 91 75 0
1 -91 50 0
1 -91 -137 0
1 91 -149 0
1 -91 68 0
1 -91 85 0
1 91 78 0
1 -91 92 0
1 92 135 0
1 92 66 0
1 92 -80 0
1 -92 -91 0
1 92 137 0
1 -92 -73 0
1 92 68 0
1 -92 85 0
1 92 78 0
1 92 51 0
1 92 150 0
1 66 79 0
1 -66 -81 0
1 -66 57 0
1 66 -151 0
1 66 -100 0
1 66 -91 0
1 66 84 0
1 66 83 0
1 -66 68 0
1 -66 152 0
1 66 89 0
1 -66 92 0
1 68 79 0
1 68 -81 0
1 68 -66 0
1 68 -153 0
1 68 -100 0
1 68 -91 0
1 -68 55 0
1 -68 83 0
1 -68 -154 0
1 -68 -152 0
1 68 102 0
1 69 79 0
1 69 -53 0
1 -69 -81 0
1 -69 155 0
1 69 -156 0
1 69 145 0
1 69 -91 0
1 -69 -84 0
1 69 -73 0
1 -69 83 0
1 -69 -152 0
1 69 -157 0
1 -69 146 0
1 69 -92 0
1 73 -79 0
1 73 69 0
1 73 153 0
1 73 156 0
1 73 -145 0
1 -73 -91 0
1 73 -84 0
1 73 -54 0
1 -73 158 0
1 73 83 0
1 73 152 0
1 73 -157 0
1 73 92 0
1 87 66 0
1 87 82 0
1 -87 80 0
1 -87 75 0
1 -87 46 0
1 87 76 0
1 -87 -145 0
1 87 -25 0
1 87 159 0
1 87 78 0
1 87 -77 0
1 -87 -89 0
1 87 28 0
1 89 -66 0
1 89 -82 0
1 89 -80 0
1 -89 -77 0
1 89 76 0
1 89 87 0
1 -89 25 0
1 -89 68 0
1 89 85 0
1 -89 -159 0
1 -89 -78 0
1 -89 48 0
1 89 -146 0
1 -89 28 0
1 100 82 0
1 -100 80 0
1 -100 -90 0
1 100 156 0
1 -100 -88 0
1 100 85 0
1 100 -159 0
1 -100 102 0
1 -100 -160 0
1 -102 -66 0
1 -102 82 0
1 102 -90 0
1 -102 25 0
1 -102 -159 0
1 -102 -99 0
1 102 93 0
1 102 -157 0
1 -102 160 0
1 -102 28 0
1 -80 159 0
1 -80 -111 0
1 80 60 0
1 80 161 0
1 -80 -100 0
1 -80 87 0
1 80 -91 0
1 -80 162 0
1 -80 -102 0
1 80 92 0
1 159 163 0
1 159 111 0
1 -159 94 0
1 159 -80 0
1 159 100 0
1 159 -87 0
1 159 -91 0
1 -159 -162 0
1 -159 113 0
1 159 64 0
1 159 164 0
1 -159 102 0
1 159 -89 0
1 159 92 0
1 82 -163 0
1 -82 59 0
1 -82 -165 0
1 -82 -166 0
1 82 -100 0
1 82 -87 0
1 82 91 0
1 82 85 0
1 -82 167 0
1 82 152 0
1 -82 -102 0
1 82 -89 0
1 85 163 0
1 -85 168 0
1 85 82 0
1 85 -165 0
1 85 153 0
1 -85 -87 0
1 85 -91 0
1 85 162 0
1 -85 -63 0
1 85 167 0
1 85 -89 0
1 85 -92 0
1 94 45 0
1 -94 159 0
1 94 -115 0
1 94 80 0
1 -94 -153 0
1 -94 90 0
1 94 -88 0
1 -94 25 0
1 94 19 0
1 94 -97 0
1 -94 93 0
1 97 86 0
1 97 -45 0
1 -97 -94 0
1 97 -80 0
1 97 88 0
1 -97 -25 0
1 -97 -44 0
1 97 110 0
1 -97 152 0
1 97 -93 0
1 -111 -98 0
1 -111 45 0
1 -111 -165 0
1 -111 -80 0
1 -111 -90 0
1 -111 101 0
1 111 96 0
1 111 -44 0
1 -111 113 0
1 -111 -159 0
1 111 -103 0
1 113 45 0
1 113 111 0
1 -113 -80 0
1 113 -88 0
1 -113 96 0
1 113 -107 0
1 -113 -167 0
1 113 -159 0
1 113 93 0
1 113 160 0
1 113 103 0
1 -88 -169 0
1 -88 -119 0
1 -88 -111 0
1 -88 94 0
1 -88 100 0
1 -88 -76 0
1 -88 170 0
1 88 -171 0
1 88 -120 0
1 -88 106 0
1 88 113 0
1 -88 -97 0
1 -88 102 0
1 88 160 0
1 -160 -169 0
1 -160 -105 0
1 160 -111 0
1 160 -94 0
1 160 100 0
1 -160 88 0
1 -160 -171 0
1 -160 -106 0
1 -160 -113 0
1 -160 97 0
1 160 -102 0
1 160 77 0
1 -160 172 0
1 90 -169 0
1 -90 173 0
1 90 163 0
1 -90 111 0
1 -90 -94 0
1 90 100 0
1 -90 174 0
1 -90 -171 0
1 90 -175 0
1 90 162 0
1 -90 -113 0
1 -90 -97 0
1 93 -173 0
1 -93 163 0
1 -93 111 0
1 93 -94 0
1 93 100 0
1 93 -175 0
1 93 -162 0
1 -93 113 0
1 93 -97 0
1 -93 -102 0
1 -93 -176 0
1 105 98 0
1 105 -45 0
1 -105 41 0
1 -105 163 0
1 105 96 0
1 -105 -106 0
1 -105 44 0
1 -105 -38 0
1 -105 104 0
1 105 -103 0
1 -106 -45 0
1 106 -105 0
1 106 52 0
1 106 88 0
1 -106 101 0
1 106 -96 0
1 -106 44 0
1 106 -162 0
1 106 38 0
1 106 104 0
1 106 160 0
1 106 103 0
1 -119 98 0
1 -119 -173 0
1 119 108 0
1 119 52 0
1 119 -101 0
1 -119 120 0
1 119 -96 0
1 119 112 0
1 -119 -104 0
1 -119 160 0
1 119 -103 0
1 120 98 0
1 120 114 0
1 120 -108 0
1 120 52 0
1 -120 -101 0
1 -120 -175 0
1 120 112 0
1 120 -177 0
1 -120 -104 0
1 -120 -160 0
1 -120 -103 0
1 -96 98 0
1 -96 -119 0
1 96 -105 0
1 -96 -178 0
1 96 120 0
1 96 -19 0
1 -96 -106 0
1 96 -113 0
1 -96 -179 0
1 96 180 0
1 -98 -116 0
1 -98 -86 0
1 98 119 0
1 -98 -105 0
1 98 -111 0
1 -98 178 0
1 98 -118 0
1 -98 -106 0
1 -98 -113 0
1 98 179 0
1 -98 -180 0
1 101 -169 0
1 -101 -119 0
1 101 -105 0
1 101 111 0
1 101 -181 0
1 -101 -182 0
1 -101 -25 0
1 101 171 0
1 -101 179 0
1 101 -183 0
1 103 169 0
1 -103 -119 0
1 -103 105 0
1 103 181 0
1 -103 120 0
1 -103 106 0
1 103 -113 0
1 -103 -28 0
1 103 -183 0
1 116 98 0
1 116 -114 0
1 -116 -52 0
1 116 -49 0
1 116 118 0
1 -116 -96 0
1 116 112 0
1 -116 177 0
1 -118 116 0
1 118 98 0
1 -118 -114 0
1 118 -108 0
1 -118 52 0
1 -118 112 0
1 118 -177 0
1 -118 104 0
1 -118 47 0
1 180 -98 0
1 180 114 0
1 -180 -108 0
1 180 122 0
1 180 -117 0
1 -180 -178 0
1 180 96 0
1 -180 112 0
1 -180 177 0
1 -180 121 0
1 180 184 0
1 180 -183 0
1 178 -98 0
1 178 114 0
1 -178 -122 0
1 -178 -182 0
1 -178 177 0
1 178 -121 0
1 -178 -180 0
1 -177 -116 0
1 177 119 0
1 -177 108 0
1 177 -185 0
1 -177 186 0
1 177 -178 0
1 177 118 0
1 -177 120 0
1 -177 -38 0
1 177 -187 0
1 -177 -188 0
1 177 180 0
1 -108 -116 0
1 -108 -119 0
1 108 -185 0
1 108 -186 0
1 108 -178 0
1 108 118 0
1 -108 -120 0
1 108 -177 0
1 -108 187 0
1 -108 188 0
1 108 -180 0
1 -112 116 0
1 -112 119 0
1 112 114 0
1 -112 189 0
1 -112 181 0
1 -112 178 0
1 -112 118 0
1 -112 120 0
1 112 44 0
1 -112 190 0
1 -112 -179 0
1 -112 -180 0
1 -114 -116 0
1 -114 -119 0
1 -114 -45 0
1 114 189 0
1 -114 181 0
1 114 178 0
1 -114 118 0
1 114 -120 0
1 114 190 0
1 -114 -179 0
1 114 180 0
1 -188 108 0
1 188 117 0
1 -188 -186 0
1 -188 -177 0
1 188 121 0
1 -188 184 0
1 -188 179 0
1 186 -108 0
1 186 117 0
1 186 181 0
1 -186 121 0
1 186 -184 0
1 186 -188 0
1 -187 108 0
1 -187 185 0
1 187 -117 0
1 187 -177 0
1 -187 121 0
1 187 -184 0
1 -187 -190 0
1 -185 -184 0
1 185 -108 0
1 -185 -122 0
1 185 -117 0
1 185 -189 0
1 -185 -121 0
1 185 187 0
1 184 185 0
1 -184 -117 0
1 184 -178 0
1 184 -187 0
1 184 -188 0
1 -184 180 0
1 -117 185 0
1 -117 -186 0
1 -117 178 0
1 121 -185 0
1 -121 178 0
1 -121 -187 0
1 121 -188 0
1 122 52 0
1 -122 -185 0
1 -122 -178 0
1 -122 -121 0
1 -122 187 0
1 122 -188 0
1 -122 180 0
1 142 -139 0
1 -142 -134 0
1 -142 132 0
1 142 -127 0
1 -142 -130 0
1 142 136 0
1 142 -84 0
1 142 -133 0
1 -142 128 0
1 142 138 0
1 139 134 0
1 -139 132 0
1 -139 -136 0
1 139 133 0
1 139 131 0
1 -139 128 0
1 -139 -129 0
1 139 -138 0
1 -149 -134 0
1 -149 141 0
1 -149 136 0
1 149 -91 0
1 -149 -133 0
1 149 -140 0
1 -149 -138 0
1 149 150 0
1 -150 132 0
1 -150 144 0
1 150 149 0
1 150 -131 0
1 150 143 0
1 -150 140 0
1 150 138 0
1 150 92 0
1 131 -139 0
1 131 -132 0
1 131 156 0
1 131 145 0
1 131 -191 0
1 -131 -149 0
1 -131 -142 0
1 131 -126 0
1 -131 157 0
1 131 146 0
1 -131 150 0
1 -132 -139 0
1 132 123 0
1 -132 -192 0
1 -132 -156 0
1 -132 -145 0
1 -132 149 0
1 -132 142 0
1 132 131 0
1 -132 157 0
1 -132 146 0
1 -132 -150 0
1 -133 139 0
1 -133 142 0
1 133 -124 0
1 133 -193 0
1 -133 150 0
1 -134 139 0
1 134 -149 0
1 -134 -142 0
1 -134 133 0
1 145 135 0
1 145 69 0
1 -145 132 0
1 145 144 0
1 145 -141 0
1 145 -137 0
1 145 131 0
1 145 143 0
1 -145 -140 0
1 145 146 0
1 -145 138 0
1 146 -135 0
1 146 138 0
1 -146 -69 0
1 -146 132 0
1 146 -141 0
1 -146 136 0
1 -146 -137 0
1 -146 131 0
1 -146 -143 0
1 -146 -140 0
1 156 194 0
1 -156 132 0
1 -156 144 0
1 156 -100 0
1 156 -141 0
1 156 148 0
1 156 195 0
1 156 -73 0
1 156 143 0
1 156 -131 0
1 156 157 0
1 -156 140 0
1 156 147 0
1 157 194 0
1 -157 69 0
1 -157 -132 0
1 157 -144 0
1 157 -156 0
1 157 141 0
1 -157 195 0
1 157 73 0
1 -157 131 0
1 157 -102 0
1 157 -143 0
1 -157 140 0
1 -157 147 0
1 140 -196 0
1 -140 165 0
1 -140 153 0
1 -140 156 0
1 -140 -141 0
1 140 -145 0
1 -140 -149 0
1 140 197 0
1 -140 -167 0
1 140 -152 0
1 -140 -157 0
1 140 -146 0
1 -141 -196 0
1 -141 153 0
1 141 145 0
1 141 149 0
1 -141 152 0
1 -141 -157 0
1 -141 140 0
1 143 196 0
1 -143 144 0
1 143 -156 0
1 -143 145 0
1 -143 128 0
1 143 -149 0
1 143 -197 0
1 -143 -157 0
1 143 -198 0
1 -143 -146 0
1 -143 -150 0
1 144 -196 0
1 144 -127 0
1 -144 -156 0
1 -144 -199 0
1 144 -145 0
1 144 -149 0
1 144 -143 0
1 144 -197 0
1 -144 -157 0
1 144 150 0
1 -153 69 0
1 153 66 0
1 -153 82 0
1 153 94 0
1 153 -141 0
1 -153 148 0
1 153 195 0
1 153 68 0
1 -153 -85 0
1 153 -152 0
1 153 -140 0
1 -153 147 0
1 152 194 0
1 152 69 0
1 -152 66 0
1 152 -82 0
1 152 -153 0
1 -152 -141 0
1 -152 148 0
1 -152 -68 0
1 152 85 0
1 152 -140 0
1 -165 -155 0
1 -165 151 0
1 165 82 0
1 165 141 0
1 -165 -148 0
1 165 195 0
1 -165 158 0
1 -165 154 0
1 -165 85 0
1 165 140 0
1 165 -147 0
1 167 194 0
1 167 -151 0
1 167 -82 0
1 167 165 0
1 167 141 0
1 -167 -195 0
1 167 -158 0
1 -167 154 0
1 167 113 0
1 167 -147 0
1 194 -135 0
1 -194 200 0
1 -194 -173 0
1 -194 -201 0
1 194 -163 0
1 194 -153 0
1 -194 -156 0
1 -194 -195 0
1 -194 202 0
1 -194 175 0
1 -194 162 0
1 -194 -167 0
1 -194 -152 0
1 -194 -157 0
1 -195 -194 0
1 195 200 0
1 -195 173 0
1 -195 163 0
1 195 -165 0
1 195 -153 0
1 -195 -202 0
1 195 175 0
1 -195 -203 0
1 -195 -162 0
1 195 167 0
1 195 152 0
1 147 204 0
1 -147 -200 0
1 -147 -205 0
1 147 -196 0
1 -147 -153 0
1 -147 -156 0
1 -147 -148 0
1 147 -202 0
1 147 206 0
1 -147 -197 0
1 -147 152 0
1 147 157 0
1 -147 138 0
1 148 -200 0
1 148 -205 0
1 148 156 0
1 -148 136 0
1 -148 -207 0
1 -148 206 0
1 148 167 0
1 148 152 0
1 -148 157 0
1 148 147 0
1 163 105 0
1 -163 -155 0
1 163 196 0
1 163 82 0
1 163 151 0
1 163 80 0
1 163 -90 0
1 163 195 0
1 -163 -162 0
1 -163 -85 0
1 163 -159 0
1 163 93 0
1 -162 194 0
1 162 -155 0
1 -162 -151 0
1 162 82 0
1 -162 80 0
1 -162 106 0
1 -162 -85 0
1 162 154 0
1 -162 159 0
1 -162 93 0
1 173 194 0
1 173 119 0
1 173 -205 0
1 173 155 0
1 -173 -151 0
1 173 166 0
1 173 -161 0
1 -173 -195 0
1 173 -175 0
1 173 -158 0
1 173 -154 0
1 173 168 0
1 -173 164 0
1 173 -93 0
1 175 -194 0
1 -175 -173 0
1 175 155 0
1 -175 151 0
1 175 166 0
1 175 161 0
1 -175 90 0
1 175 195 0
1 -175 206 0
1 -175 -158 0
1 175 154 0
1 -175 168 0
1 -175 -164 0
1 175 -93 0
1 -151 -169 0
1 151 173 0
1 -151 163 0
1 -151 66 0
1 151 165 0
1 151 208 0
1 -151 -182 0
1 151 171 0
1 -151 175 0
1 151 -162 0
1 -151 154 0
1 151 183 0
1 -154 169 0
1 154 -173 0
1 154 163 0
1 -154 151 0
1 -154 -165 0
1 -154 208 0
1 154 -182 0
1 154 -171 0
1 154 175 0
1 -154 162 0
1 -154 -68 0
1 -154 -167 0
1 -154 -183 0
1 -155 -209 0
1 -155 -200 0
1 -155 -173 0
1 -155 -69 0
1 -155 -163 0
1 -155 -165 0
1 155 210 0
1 -155 202 0
1 155 175 0
1 -155 162 0
1 -155 -167 0
1 158 200 0
1 -158 173 0
1 158 -163 0
1 -158 165 0
1 -158 210 0
1 -158 202 0
1 158 -175 0
1 -158 -73 0
1 158 -162 0
1 158 167 0
1 169 151 0
1 169 166 0
1 169 161 0
1 -169 -88 0
1 169 -171 0
1 169 101 0
1 -169 168 0
1 169 164 0
1 -169 -160 0
1 171 169 0
1 -171 -151 0
1 -171 -166 0
1 -171 -161 0
1 -171 -90 0
1 171 -118 0
1 171 -202 0
1 -171 154 0
1 171 -168 0
1 171 -164 0
1 171 -93 0
1 -171 160 0
1 171 103 0
1 -183 209 0
1 183 151 0
1 -183 -166 0
1 183 182 0
1 183 170 0
1 183 101 0
1 -183 154 0
1 183 168 0
1 183 -164 0
1 -183 176 0
1 183 172 0
1 -183 -180 0
1 183 103 0
1 -182 151 0
1 -182 166 0
1 182 174 0
1 -182 -178 0
1 182 170 0
1 182 210 0
1 -182 101 0
1 -182 154 0
1 182 -168 0
1 182 -164 0
1 182 172 0
1 -182 103 0
1 -161 -169 0
1 161 -164 0
1 -161 -80 0
1 -161 -189 0
1 161 -181 0
1 161 -182 0
1 -161 -171 0
1 161 -179 0
1 -161 -183 0
1 164 173 0
1 -164 -189 0
1 164 -161 0
1 164 -181 0
1 -164 182 0
1 -164 -175 0
1 164 -159 0
1 -164 190 0
1 -164 -179 0
1 -164 183 0
1 166 169 0
1 -166 -173 0
1 -166 -211 0
1 -166 182 0
1 -166 -171 0
1 166 -175 0
1 -166 168 0
1 166 -212 0
1 -166 -183 0
1 168 -169 0
1 -168 -173 0
1 168 166 0
1 -168 211 0
1 168 208 0
1 168 -182 0
1 -168 -171 0
1 168 175 0
1 -168 85 0
1 -168 212 0
1 -168 183 0
1 179 -98 0
1 179 -114 0
1 -179 181 0
1 179 -174 0
1 -179 -170 0
1 179 101 0
1 -179 -96 0
1 179 -164 0
1 -179 176 0
1 -179 -188 0
1 179 172 0
1 179 -103 0
1 -181 98 0
1 181 114 0
1 181 161 0
1 -181 -186 0
1 181 -174 0
1 181 208 0
1 -181 170 0
1 181 -96 0
1 -181 -112 0
1 -181 172 0
1 181 103 0
1 -190 189 0
1 190 -161 0
1 -190 -174 0
1 190 170 0
1 -190 112 0
1 190 -164 0
1 -190 -187 0
1 190 212 0
1 -190 172 0
1 189 114 0
1 189 174 0
1 -189 -170 0
1 -189 -112 0
1 189 -190 0
1 170 -189 0
1 -170 -181 0
1 -170 -88 0
1 170 -190 0
1 170 -179 0
1 -172 189 0
1 172 -181 0
1 -172 -182 0
1 -172 -170 0
1 172 -160 0
1 172 -179 0
1 172 183 0
1 -174 -189 0
1 -174 -90 0
1 -174 182 0
1 -174 190 0
1 174 179 0
1 -176 -174 0
1 176 182 0
1 -176 93 0
1 -176 -190 0
1 -176 179 0
1 176 -183 0
1 196 163 0
1 -196 -213 0
1 -196 192 0
1 196 144 0
1 196 141 0
1 196 148 0
1 196 -197 0
1 196 193 0
1 -196 143 0
1 -196 140 0
1 196 -147 0
1 -197 -213 0
1 -197 192 0
1 -197 -144 0
1 -197 148 0
1 -197 -162 0
1 197 -143 0
1 197 140 0
1 -197 -147 0
1 205 173 0
1 205 -213 0
1 -205 -192 0
1 205 -214 0
1 -205 -206 0
1 205 191 0
1 -205 -198 0
1 205 -215 0
1 205 -147 0
1 206 205 0
1 206 192 0
1 -206 -199 0
1 206 214 0
1 -206 -148 0
1 206 193 0
1 -206 191 0
1 206 -198 0
1 -206 -215 0
1 -206 147 0
1 191 209 0
1 191 200 0
1 -191 -205 0
1 -191 -196 0
1 191 -192 0
1 -191 210 0
1 191 202 0
1 191 -206 0
1 -191 -197 0
1 -192 209 0
1 192 -200 0
1 192 -205 0
1 192 -210 0
1 192 -202 0
1 -192 -206 0
1 -192 -197 0
1 -192 -191 0
1 193 205 0
1 193 213 0
1 193 -197 0
1 193 133 0
1 -213 205 0
1 -213 196 0
1 213 193 0
1 -213 -197 0
1 -200 -169 0
1 -200 194 0
1 200 192 0
1 -200 -199 0
1 200 148 0
1 200 195 0
1 200 -202 0
1 200 158 0
1 200 -215 0
1 200 147 0
1 202 -194 0
1 -202 200 0
1 202 -155 0
1 -202 192 0
1 -202 214 0
1 202 148 0
1 -202 171 0
1 -202 -195 0
1 202 158 0
1 -202 191 0
1 -202 -198 0
1 209 -204 0
1 -209 201 0
1 -209 -155 0
1 209 192 0
1 -209 199 0
1 -209 -214 0
1 -209 210 0
1 -209 -207 0
1 -209 -203 0
1 209 158 0
1 -209 -198 0
1 209 -183 0
1 210 209 0
1 210 -204 0
1 210 155 0
1 -210 -192 0
1 -210 199 0
1 -210 214 0
1 210 182 0
1 -210 -207 0
1 -210 203 0
1 210 -158 0
1 -210 -191 0
1 -210 198 0
1 -210 215 0
1 -215 -200 0
1 215 -205 0
1 215 211 0
1 -215 -208 0
1 -215 -214 0
1 -215 -202 0
1 -215 -206 0
1 -215 -140 0
1 -214 209 0
1 214 -200 0
1 -214 -205 0
1 214 -211 0
1 214 141 0
1 -214 -208 0
1 214 202 0
1 -214 -215 0
1 -198 -209 0
1 -198 -205 0
1 198 -199 0
1 -198 -202 0
1 198 206 0
1 -199 -209 0
1 -199 -200 0
1 -199 205 0
1 -199 -210 0
1 199 202 0
1 199 206 0
1 -199 -198 0
1 208 -204 0
1 208 -155 0
1 208 -151 0
1 -208 -181 0
1 208 -207 0
1 -208 203 0
1 -208 -158 0
1 208 -168 0
1 208 215 0
1 -212 204 0
1 212 -201 0
1 212 -166 0
1 212 211 0
1 212 214 0
1 -212 207 0
1 -212 -215 0
1 211 -204 0
1 -211 201 0
1 -211 -166 0
1 211 -189 0
1 211 -207 0
1 211 203 0
1 211 168 0
1 -211 212 0
1 201 209 0
1 201 194 0
1 201 -211 0
1 -201 208 0
1 201 210 0
1 201 203 0
1 201 -212 0
1 203 211 0
1 203 208 0
1 203 -210 0
1 -203 195 0
1 203 -212 0
1 -204 -209 0
1 204 -211 0
1 -204 -208 0
1 204 -207 0
1 207 209 0
1 -207 -204 0
1 207 211 0
1 -207 -208 0
1 -207 148 0
1 207 210 0
1 -207 -212 0
